p cnf 139 469
-3 1 0
-3 -2 0
-1 2 3 0
-5 6 -7 0
5 -6 -7 0
-5 -6 7 0
5 6 7 0
8 4 0
8 7 0
-4 -7 -8 0
-9 3 0
-9 -8 0
-3 8 9 0
-11 -9 0
-11 10 0
9 -10 11 0
-7 4 -12 0
7 -4 -12 0
-7 -4 12 0
7 4 12 0
15 14 0
15 6 0
-14 -6 -15 0
13 15 -16 0
-13 -15 -16 0
13 -15 16 0
-13 15 16 0
17 -12 0
17 16 0
12 -16 -17 0
-18 -11 0
-18 -17 0
11 17 18 0
-20 -11 0
-20 19 0
11 -19 20 0
22 -1 0
22 21 0
1 -21 -22 0
23 -20 0
23 22 0
20 -22 -23 0
-18 23 -24 0
18 -23 -24 0
-18 -23 24 0
18 23 24 0
26 25 0
26 19 0
-25 -19 -26 0
26 27 -28 0
-26 -27 -28 0
26 -27 28 0
-26 27 28 0
30 29 0
30 11 0
-29 -11 -30 0
31 30 0
31 13 0
-30 -13 -31 0
32 -13 0
32 -27 0
13 27 -32 0
33 -31 0
33 -32 0
31 32 -33 0
-34 -28 0
-34 33 0
28 -33 34 0
35 19 0
35 8 0
-19 -8 -35 0
36 21 0
36 35 0
-21 -35 -36 0
-37 -29 0
-37 14 0
29 -14 37 0
-13 38 -39 0
13 -38 -39 0
-13 -38 39 0
13 38 39 0
40 -6 0
40 -39 0
6 39 -40 0
-40 -36 -41 0
40 36 -41 0
-40 36 41 0
40 -36 41 0
37 41 -42 0
-37 -41 -42 0
37 -41 42 0
-37 41 42 0
43 36 0
43 42 0
-36 -42 -43 0
-27 -43 -44 0
27 43 -44 0
-27 43 44 0
27 -43 44 0
-45 34 0
-45 -44 0
-34 44 45 0
-46 -4 0
-46 -39 0
4 39 46 0
47 -14 0
47 37 0
14 -37 -47 0
-14 47 -48 0
14 -47 -48 0
-14 -47 48 0
14 47 48 0
49 48 0
49 16 0
-48 -16 -49 0
50 -46 0
50 49 0
46 -49 -50 0
-51 -46 0
-51 12 0
46 -12 51 0
-52 -50 0
-52 -51 0
50 51 52 0
-37 19 -53 0
37 -19 -53 0
-37 -19 53 0
37 19 53 0
54 -35 0
54 -53 0
35 53 -54 0
55 -6 0
55 22 0
6 -22 -55 0
-54 55 -56 0
54 -55 -56 0
-54 -55 56 0
54 55 56 0
-52 -56 -57 0
52 56 -57 0
-52 56 57 0
52 -56 57 0
58 5 0
58 -7 0
-5 7 -58 0
59 -58 0
59 4 0
58 -4 -59 0
60 7 0
60 6 0
-7 -6 -60 0
-61 59 0
-61 -60 0
-59 60 61 0
-62 48 0
-62 -10 0
-48 10 62 0
-62 -9 -63 0
62 9 -63 0
-62 9 63 0
62 -9 63 0
-64 61 0
-64 63 0
-61 -63 64 0
-65 1 0
-65 64 0
-1 -64 65 0
66 1 0
66 -3 0
-1 3 -66 0
67 -54 0
67 -19 0
54 19 -67 0
-68 -66 0
-68 67 0
66 -67 68 0
-65 68 -69 0
65 -68 -69 0
-65 -68 69 0
65 68 69 0
-70 38 0
-70 49 0
-38 -49 70 0
-39 -27 -71 0
39 27 -71 0
-39 27 71 0
39 -27 71 0
72 70 0
72 71 0
-70 -71 -72 0
-22 3 -73 0
22 -3 -73 0
-22 -3 73 0
22 3 73 0
13 73 -74 0
-13 -73 -74 0
13 -73 74 0
-13 73 74 0
-75 -38 0
-75 53 0
38 -53 75 0
74 75 -76 0
-74 -75 -76 0
74 -75 76 0
-74 75 76 0
-77 76 0
-77 -11 0
-76 11 77 0
72 77 -78 0
-72 -77 -78 0
72 -77 78 0
-72 77 78 0
79 69 0
79 78 0
-69 -78 -79 0
80 -57 0
80 -79 0
57 79 -80 0
81 36 0
81 -29 0
-36 29 -81 0
82 20 0
82 -25 0
-20 25 -82 0
81 82 -83 0
-81 -82 -83 0
81 -82 83 0
-81 82 83 0
-84 -80 0
-84 -83 0
80 83 84 0
45 -84 -85 0
-45 84 -85 0
45 84 85 0
-45 -84 85 0
-87 29 0
-87 86 0
-29 -86 87 0
88 -46 0
88 -14 0
46 14 -88 0
-89 87 0
-89 88 0
-87 -88 89 0
90 -47 0
90 -75 0
47 75 -90 0
-91 90 0
-91 -58 0
-90 58 91 0
92 61 0
92 39 0
-61 -39 -92 0
-93 -91 0
-93 92 0
91 -92 93 0
-48 -3 -94 0
48 3 -94 0
-48 3 94 0
48 -3 94 0
95 36 0
95 94 0
-36 -94 -95 0
93 -95 -96 0
-93 95 -96 0
93 95 96 0
-93 -95 96 0
-40 35 -97 0
40 -35 -97 0
-40 -35 97 0
40 35 97 0
99 98 0
99 -26 0
-98 26 -99 0
-100 97 0
-100 -99 0
-97 99 100 0
101 -26 0
101 35 0
26 -35 -101 0
102 -38 0
102 -13 0
38 13 -102 0
101 -102 -103 0
-101 102 -103 0
101 102 103 0
-101 -102 103 0
104 100 0
104 -103 0
-100 103 -104 0
-96 104 -105 0
96 -104 -105 0
-96 -104 105 0
96 104 105 0
-89 -105 -106 0
89 105 -106 0
-89 105 106 0
89 -105 106 0
-107 -90 0
-107 61 0
90 -61 107 0
108 4 0
108 107 0
-4 -107 -108 0
109 -108 0
109 -54 0
108 54 -109 0
40 -4 -110 0
-40 4 -110 0
40 4 110 0
-40 -4 110 0
47 -16 -111 0
-47 16 -111 0
47 16 111 0
-47 -16 111 0
112 111 0
112 -40 0
-111 40 -112 0
110 -112 -113 0
-110 112 -113 0
110 112 113 0
-110 -112 113 0
-114 -109 0
-114 -113 0
109 113 114 0
115 4 0
115 -5 0
-4 5 -115 0
116 -115 0
116 74 0
115 -74 -116 0
86 -37 -117 0
-86 37 -117 0
86 37 117 0
-86 -37 117 0
116 -117 -118 0
-116 117 -118 0
116 117 118 0
-116 -117 118 0
-119 -27 0
-119 25 0
27 -25 119 0
120 -55 0
120 -15 0
55 15 -120 0
-121 119 0
-121 -120 0
-119 120 121 0
122 38 0
122 -59 0
-38 59 -122 0
123 -121 0
123 -122 0
121 122 -123 0
124 118 0
124 -123 0
-118 123 -124 0
-114 -124 -125 0
114 124 -125 0
-114 124 125 0
114 -124 125 0
-106 -125 -126 0
106 125 -126 0
-106 125 126 0
106 -125 126 0
76 -48 -127 0
-76 48 -127 0
76 48 127 0
-76 -48 127 0
128 126 0
128 127 0
-126 -127 -128 0
-129 74 0
-129 19 0
-74 -19 129 0
-130 -128 0
-130 -129 0
128 129 130 0
-131 -85 0
-131 130 0
85 -130 131 0
-132 24 0
-132 -131 0
-24 131 132 0
-133 9 0
-133 59 0
-9 -59 133 0
-134 -26 0
-134 -94 0
26 94 134 0
-135 9 0
-135 -22 0
-9 22 135 0
135 -3 -136 0
-135 3 -136 0
135 3 136 0
-135 -3 136 0
-134 -136 -137 0
134 136 -137 0
-134 136 137 0
134 -136 137 0
138 -133 0
138 -137 0
133 137 -138 0
139 132 0
139 138 0
-132 -138 -139 0
-94 61 76 77 -105 0
-23 70 29 111 -100 0
-124 39 0
-125 101 107 0
-92 -14 13 89 -105 0
-64 11 -10 21 -113 0
98 85 -102 62 -10 0
87 -4 81 131 0
-70 79 92 35 -103 73 0
-87 -34 -44 2 0
-23 41 93 -95 0
55 -22 -29 0
130 -88 -100 110 11 -55 0
12 5 -21 -61 0
-28 60 105 107 31 0
105 32 -128 63 0
120 136 35 0
81 19 43 -98 0
-112 119 33 -44 -1 0
114 89 126 -52 59 0
-69 29 0
40 124 112 0
137 34 -111 0
-97 -35 111 137 122 67 0
-72 139 86 10 -61 0
-4 -74 -60 -10 0
17 19 26 84 0
38 79 -62 -105 0
-37 41 -57 0
-61 -35 -20 55 -16 0
21 -116 0
-56 -84 -3 -13 0
-94 -137 17 -34 43 0
-111 -126 -116 0
-116 64 119 0
-129 77 0
24 -112 0
-138 42 132 38 -101 0
135 128 0
-25 20 -56 45 -18 49 0
109 89 108 0
-112 80 139 -38 -42 0
37 -58 0
-50 -117 -104 0
75 -12 -72 99 0
33 -105 0
-119 -93 123 0
-128 -37 -130 -77 0
-10 -124 -120 111 -136 19 0
90 2 0
-67 -41 -108 0
-118 78 83 -30 0
-41 -132 4 94 119 0
-64 -139 0
-26 108 -35 -33 -71 0
73 85 71 0
109 -110 -65 24 0
-74 139 15 41 -70 -49 0
37 -36 90 0
-83 7 -111 -50 99 0
-131 49 -6 61 0
139 0
